timestep	${dt}
reset_timestep	0

compute		comp_temp all temp

fix		nve_all_equil all nve
fix		lang_all_equil all langevin ${Temp_init} ${Temp_init} ${Damp_temp} 699483
fix_modify	lang_all_equil temp comp_temp

fix		zero_mom liquid momentum 1 linear 0 1 1

variable	Neq_thermo equal (${N_all_equil}/5)  
thermo_style	custom step atoms lx ly lz density temp press etotal pe ke c_comp_temp
thermo		${Neq_thermo}
thermo_modify	norm yes

# Dynamic Properties
compute		comp_msd_l liquid msd
fix		ave_msd_l liquid ave/time 1 1 10000 c_comp_msd_l[1] c_comp_msd_l[2] c_comp_msd_l[3] c_comp_msd_l[4] file out_preparation/Out_msd_liquid.equilall
compute		comp_msd_s solid msd
fix		ave_msd_s solid ave/time 1 1 10000 c_comp_msd_s[1] c_comp_msd_s[2] c_comp_msd_s[3] c_comp_msd_s[4] file out_preparation/Out_msd_solid.equilall

# output global thermodynamic properties
variable	ave_dens equal density
fix		ave_prop liquid ave/time 1 ${N_liquid_equil} ${N_liquid_equil} c_comp_temp v_ave_dens file out_preparation/Out_ave_thermo.equilall

# Static Properties
compute		chunk_fluid all chunk/atom bin/1d x lower ${slab_size} units reduced
fix		prof_dens all ave/chunk 1 ${N_liquid_equil} ${N_liquid_equil} chunk_fluid density/number file out_preparation/density_profile.equilall
fix		prof_temp all ave/chunk 1 ${N_liquid_equil} ${N_liquid_equil} chunk_fluid temp file out_preparation/temp_profile.equilall

run		${N_liquid_equil}

uncompute	comp_temp

unfix		nve_all_equil
unfix		lang_all_equil

unfix		zero_mom

variable	Neq_thermo delete

uncompute	comp_msd_l
unfix		ave_msd_l
uncompute	comp_msd_s
unfix		ave_msd_s

variable	ave_dens delete
unfix		ave_prop

uncompute	chunk_fluid
unfix		prof_dens
unfix		prof_temp
